%chk=BCP.chk
%mem=9600MB
#p B3LYP/6-31G(d) opt freq

BCP - B3LYP/6-31G(d) optimization

0 1
 C       4.75940214      0.52351013     -1.23775410
 C       4.09662740     -0.62271407     -1.67235249
 C       2.88767672     -0.99697855     -1.08208318
 C       2.32601716     -0.22752363     -0.05156099
 C       1.05280965     -0.62233104      0.57151772
 C       1.09986912     -1.46917834      1.68083536
 C      -0.08373595     -1.84372184      2.26996630
 N      -1.28968967     -1.43773260      1.83493739
 C      -1.38249531     -0.61490695      0.76091250
 C      -0.21039883     -0.17795931      0.09068136
 C      -0.33437689      0.67656113     -1.02248810
 C      -1.57975272      1.09415297     -1.46962902
 C      -2.73210028      0.66602034     -0.81260144
 C      -3.99250466      1.08620464     -1.26194213
 C      -5.14027270      0.66172303     -0.61006993
 C      -4.98664910     -0.17268441      0.47431012
 N      -3.78858218     -0.59402145      0.93024049
 C      -2.64843335     -0.19228687      0.30888328
 C       3.00697582      0.92206759      0.37767664
 C       4.21588729      1.29581022     -0.21300434
 H       5.70105570      0.81402574     -1.69663105
 H       4.52075958     -1.22696313     -2.47018099
 H       2.38066928     -1.89461916     -1.43084733
 H       2.04382338     -1.82925458      2.07694506
 H      -0.10141371     -2.50043965      3.13463544
 H       0.54602757      1.02865235     -1.55732335
 H      -1.63857624      1.75404728     -2.33231151
 H      -4.08615885      1.74573434     -2.12132974
 H      -6.12465998      0.97301897     -0.93882742
 H      -5.84470953     -0.54116098      1.02888065
 H       2.59381672      1.53401840      1.17721785
 H       4.73309245      2.18892944      0.12814063

