%chk=CBP.chk
#p B3LYP/6-31G(d) opt freq

CBP - B3LYP/6-31G(d) optimization

0 1
 C       6.81324082      0.56690428      0.70975239
 C       6.27706403     -0.01997542     -0.43350196
 C       4.89159913     -0.13434238     -0.57728050
 C       4.01844667      0.33436302      0.41862542
 C       2.55929774      0.21295666      0.26662628
 C       1.90587616      0.71656668     -0.86979257
 C       0.51888759      0.60575597     -1.01719308
 C      -0.24220809     -0.02014270     -0.02521813
 N      -1.65696162     -0.13786052     -0.17260005
 C      -2.51033509      0.87677321     -0.61431943
 C      -2.26948752      2.22679066     -0.94803656
 C      -3.34393733      3.02703267     -1.34762297
 C      -4.63265480      2.51386676     -1.39807243
 C      -4.87696474      1.18842505     -1.03163457
 C      -3.80832406      0.36025807     -0.62135733
 C      -3.74359055     -0.98862133     -0.16531449
 C      -4.72347047     -1.98725017      0.03155979
 C      -4.34597118     -3.26096829      0.46272447
 C      -3.00802876     -3.55557722      0.68586647
 C      -2.02016631     -2.58372070      0.50113481
 C      -2.40504028     -1.28575674      0.10227681
 C       0.39157453     -0.52998183      1.11206638
 C       1.77840820     -0.40999390      1.25362888
 C       4.58060698      0.92249618      1.56404177
 C       5.96581226      1.03866459      1.70887707
 H       7.89049899      0.65653867      0.82196956
 H       6.93546407     -0.39214807     -1.21404491
 H       4.49424469     -0.60657845     -1.47355772
 H       2.47881980      1.20758417     -1.65447287
 H       0.06135811      0.97770286     -1.93084352
 H      -1.27656861      2.66113191     -0.88390077
 H      -3.16689388      4.06692585     -1.61270532
 H      -5.45875126      3.14836514     -1.70859663
 H      -5.89121260      0.79983388     -1.05334924
 H      -5.77027770     -1.77015661     -0.16141233
 H      -5.10302635     -4.02720790      0.60831075
 H      -2.72139029     -4.55690279      0.99920623
 H      -0.97777794     -2.84871023      0.64899112
 H      -0.17619345     -0.98723798      1.91890891
 H       2.25099213     -0.81401881      2.14722462
 H       3.93645193      1.30807863      2.35182574
 H       6.38058905      1.50013714      2.60120989

