%chk=Coumarin-6.chk
#p B3LYP/6-31G(d) opt freq

Coumarin-6 - B3LYP/6-31G(d) optimization

0 1
 C      -5.68127262      1.33633492     -1.49319521
 C      -5.14726574     -0.08615954     -1.56246058
 N      -4.32259999     -0.40661830     -0.38906733
 C      -5.03625061     -0.92130867      0.78979757
 C      -5.06705193      0.09873073      1.92026490
 C      -2.93784920     -0.26872026     -0.41188477
 C      -2.27372391      0.47011903     -1.41177004
 C      -0.87653906      0.61851476     -1.44758092
 C      -0.08952729      0.02371197     -0.47087558
 C       1.35612046      0.14903395     -0.44457157
 C       2.08031190     -0.43917516      0.52327504
 C       3.50061496     -0.27226944      0.49345623
 N       4.24516339     -0.27846429     -0.59980748
 C       5.57757327     -0.05520864     -0.29845803
 C       6.64131602     -0.03095351     -1.22318723
 C       7.94490963      0.21148144     -0.77773414
 C       8.19777426      0.43083308      0.57256481
 C       7.15847912      0.41423908      1.50801937
 C       5.85386975      0.16847593      1.04817246
 S       4.38720885      0.09397775      1.93733292
 C       1.42274961     -1.27835977      1.56181973
 O       2.04604416     -1.90624259      2.41128047
 O       0.02961479     -1.33702104      1.52962064
 C      -0.72025364     -0.70565855      0.52026427
 C      -2.11030637     -0.85460579      0.56000428
 H      -4.87399487      2.06949253     -1.40391814
 H      -6.25430845      1.56822906     -2.39646753
 H      -6.34628875      1.46557664     -0.63363773
 H      -4.60098685     -0.24677429     -2.49908130
 H      -5.99699568     -0.77820938     -1.61926171
 H      -4.60805525     -1.87075161      1.12967363
 H      -6.07508762     -1.15813863      0.52775281
 H      -5.53528630      1.03365895      1.59744255
 H      -5.64317393     -0.29381635      2.76424537
 H      -4.06387207      0.33926326      2.28388883
 H      -2.83439245      0.97609493     -2.19259218
 H      -0.42897146      1.20674945     -2.24488512
 H       1.82847881      0.74098661     -1.22437725
 H       6.43936104     -0.20369521     -2.27557029
 H       8.76351019      0.22682288     -1.49350929
 H       9.21626301      0.61721847      0.90723212
 H       7.35624311      0.58527582      2.56193015
 H      -2.52155226     -1.45267020      1.36585526

