%chk=CzSi.chk
%mem=19200MB
#p B3LYP/6-31G(d) opt freq

CzSi - B3LYP/6-31G(d) optimization

0 1
 C      -0.26860839      2.69288758     -3.90308445
 Si     -0.25663312      2.75321555     -2.03536965
 C      -0.40337283      4.51643504     -1.43396605
 C      -1.64663768      1.64356714     -1.35241567
 C      -1.61684044      0.25406670     -1.56998398
 C      -2.62720549     -0.57217838     -1.06920703
 C      -3.68951385     -0.02148394     -0.34647747
 N      -4.71948066     -0.86399727      0.16912938
 C      -6.08935171     -0.59367394      0.11119494
 C      -6.81344034      0.45943384     -0.48756989
 C      -8.20863172      0.45731966     -0.39874523
 C      -8.87832291     -0.57154682      0.24911270
 C      -8.16400393     -1.63322820      0.80896170
 C      -6.75354170     -1.65565529      0.72971978
 C      -5.77039195     -2.59328835      1.16095804
 C      -5.85089325     -3.83401791      1.83203333
 C      -4.68377033     -4.52615289      2.16318050
 C      -3.44146868     -3.99313384      1.84807129
 C      -3.33566637     -2.76859487      1.18195667
 C      -4.51551873     -2.08736229      0.81329418
 C      -3.73529347      1.35922061     -0.12861951
 C      -2.72124853      2.18430238     -0.62647694
 C       1.31098652      1.95728756     -1.30124363
 C       1.42829642      1.77150730      0.08823911
 C       2.57050087      1.18332817      0.63933848
 C       3.61917737      0.77585516     -0.19032749
 N       4.78403617      0.17135968      0.37021111
 C       4.78558775     -0.80934924      1.36589344
 C       3.73291967     -1.49201298      2.01235398
 C       4.04287463     -2.45703727      2.97518899
 C       5.36296381     -2.75850391      3.28047872
 C       6.40506335     -2.11003501      2.61383948
 C       6.11775350     -1.13273388      1.63477545
 C       6.93972356     -0.34207941      0.77982613
 C       8.33883034     -0.24322225      0.60980133
 C       8.86874785      0.67263475     -0.30192246
 C       8.02618369      1.49824076     -1.03351405
 C       6.63839553      1.41722473     -0.88541167
 C       6.10123379      0.46551927      0.00765874
 C       3.51873399      0.96077308     -1.57294337
 C       2.37329288      1.54541745     -2.12345760
 H       0.54811875      3.29124723     -4.31811751
 H      -1.20950613      3.09067018     -4.29556919
 H      -0.15834582      1.66696991     -4.26734804
 H       0.44478270      5.11415564     -1.78171765
 H      -0.42235911      4.56221246     -0.34085384
 H      -1.31923884      4.98217953     -1.81027122
 H      -0.80473213     -0.20645194     -2.13198612
 H      -2.58528787     -1.63631541     -1.28927095
 H      -6.31463080      1.25715932     -1.02919607
 H      -8.77482235      1.26785786     -0.85190204
 H      -9.96358477     -0.56130361      0.30855304
 H      -8.69607842     -2.44566433      1.29579103
 H      -6.81900044     -4.24745732      2.10029759
 H      -4.75079182     -5.47836902      2.68299628
 H      -2.53764968     -4.52862704      2.12963931
 H      -2.35237106     -2.35657622      0.97657929
 H      -4.52760835      1.80938743      0.46502812
 H      -2.78573937      3.25217084     -0.42540736
 H       0.63049124      2.08096995      0.76291171
 H       2.63673358      1.08969599      1.72073596
 H       2.69313709     -1.29811241      1.76728087
 H       3.23804037     -2.98300996      3.48363830
 H       5.58907175     -3.51249493      4.03000477
 H       7.43556624     -2.36605251      2.84328553
 H       9.00518615     -0.87119483      1.19441708
 H       9.94597445      0.74817609     -0.42563658
 H       8.44908326      2.22444226     -1.72393338
 H       6.00184023      2.09724083     -1.44300663
 H       4.30100315      0.61590835     -2.24521990
 H       2.32725239      1.66087720     -3.20488259

