%chk=DPEPO.chk
%mem=19200MB
#p B3LYP/6-31G(d) opt freq

DPEPO - B3LYP/6-31G(d) optimization

0 1
 O      -5.58537265      1.07911607     -2.74540973
 P      -5.17659844      0.61485313     -1.35657638
 C      -6.05883328     -0.88801023     -0.89366666
 C      -5.48163236     -1.89175919     -0.10196236
 C      -6.21157508     -3.03186046      0.24066171
 C      -7.52365598     -3.18247631     -0.20371124
 C      -8.10865162     -2.19529295     -0.99308220
 C      -7.38065185     -1.05588130     -1.33613709
 C      -5.52837899      1.88244878     -0.12443519
 C      -5.34643158      3.22991133     -0.47486813
 C      -5.58878802      4.24645361      0.44910683
 C      -6.01810283      3.92867993      1.73535132
 C      -6.20802277      2.59635490      2.09662336
 C      -5.96581959      1.57770312      1.17267428
 C      -3.40474741      0.25894951     -1.30377701
 C      -2.79833343     -0.28567406     -2.45049668
 C      -1.43224891     -0.60212214     -2.48423550
 C      -0.65709143     -0.36561343     -1.33563863
 C      -1.28114363      0.17570206     -0.21802297
 C      -2.63437380      0.50354698     -0.15414956
 O      -0.38951442      0.33551677      0.79755773
 C       0.81605736     -0.09959954      0.34042682
 C       1.99965031     -0.10566665      1.07301683
 C       3.15428802     -0.58978926      0.42997535
 P       4.70234838     -0.58472430      1.36465633
 O       4.45423462     -0.97875604      2.81132193
 C       5.84183289     -1.73534234      0.57121550
 C       6.78529952     -1.32960997     -0.38389360
 C       7.63447814     -2.26289555     -0.98214388
 C       7.55184871     -3.60932177     -0.63264254
 C       6.62290822     -4.02585769      0.31783817
 C       5.77418323     -3.09468460      0.91647432
 C       5.40853525      1.07083034      1.25615966
 C       5.11361472      1.95109463      0.20458936
 C       5.69593556      3.21935602      0.15775721
 C       6.57739553      3.62188103      1.15917901
 C       6.87701608      2.75917753      2.21084022
 C       6.29568077      1.49209867      2.25925237
 C       3.07624084     -1.04663118     -0.89651049
 C       1.86602936     -1.02976689     -1.60821546
 C       0.71001208     -0.54249418     -0.97254732
 H      -4.46027470     -1.80034277      0.25819892
 H      -5.75497830     -3.80544089      0.85352148
 H      -8.08954760     -4.07174291      0.06209611
 H      -9.13045360     -2.31289080     -1.34509205
 H      -7.84179689     -0.29026733     -1.95902768
 H      -5.01772138      3.48551055     -1.48141370
 H      -5.44558262      5.28549166      0.16341272
 H      -6.20896375      4.72021338      2.45554730
 H      -6.54805216      2.35028655      3.09972289
 H      -6.12452338      0.54736406      1.48030657
 H      -3.40438431     -0.46230374     -3.34009039
 H      -0.98833053     -1.02000647     -3.38295222
 H      -3.05116886      0.92507876      0.75263299
 H       2.02544887      0.24594898      2.09976230
 H       6.87392327     -0.28510858     -0.67137470
 H       8.36559984     -1.93837028     -1.71871541
 H       8.21656868     -4.33376205     -1.09640138
 H       6.56211435     -5.07455067      0.59789177
 H       5.05576655     -3.42534464      1.66571801
 H       4.42799219      1.66282265     -0.58796357
 H       5.45847592      3.89679054     -0.65899235
 H       7.02706653      4.61092538      1.12316371
 H       7.55940095      3.07357439      2.99655764
 H       6.52789722      0.82482427      3.08846776
 H       3.96137096     -1.42852491     -1.40158789
 H       1.82653120     -1.39001947     -2.63229205

