%chk=mCP.chk
%mem=9600MB
#p B3LYP/6-31G(d) opt freq

mCP - B3LYP/6-31G(d) optimization

0 1
 C       4.32130037     -0.73938121     -0.41481666
 C       3.84245414      0.11770287      0.57504875
 C       2.47161379      0.35610909      0.69284440
 C       1.57454135     -0.26939136     -0.18231294
 N       0.17245281     -0.02950106     -0.06358918
 C      -0.82309088     -1.00815628     -0.12850257
 C      -0.75201056     -2.41284725     -0.24546265
 C      -1.93906477     -3.15109534     -0.26566372
 C      -3.17052416     -2.52068214     -0.15257037
 C      -3.23960897     -1.13417559      0.00111184
 C      -2.05398460     -0.36617478      0.02756771
 C      -1.80110188      1.02575788      0.20132319
 C      -2.64541195      2.14107682      0.39989159
 C      -2.09827806      3.42216225      0.50124558
 C      -0.72683833      3.60724059      0.39355540
 C       0.12964129      2.51934621      0.20009927
 C      -0.41933722      1.22073935      0.13580854
 C       2.05903750     -1.13128765     -1.17441738
 C       3.43143904     -1.36226493     -1.28882804
 H       5.38911704     -0.92208230     -0.50520755
 H       4.53686291      0.59485615      1.26209222
 H       2.12051430      0.99673007      1.49825935
 H       0.19978898     -2.93209596     -0.30096987
 H      -1.89423638     -4.23354710     -0.36171174
 H      -4.08522940     -3.10763049     -0.16764592
 H      -4.20590686     -0.64992955      0.11029067
 H      -3.72145682      2.00627299      0.46393767
 H      -2.75237037      4.27752609      0.64935196
 H      -0.31207599      4.61106123      0.45057020
 H       1.19498079      2.69345646      0.08453161
 H       1.38952988     -1.59727939     -1.89342669
 H       3.80725303     -2.02251567     -2.06647823

