%chk=NPB.chk
#p B3LYP/6-31G(d) opt freq

NPB - B3LYP/6-31G(d) optimization

0 1
 C       7.95671205      2.85818710     -2.77707198
 C       8.19645209      1.91083925     -1.78515988
 C       7.12826909      1.22799337     -1.19682359
 C       5.80257857      1.48025239     -1.58807061
 C       4.67790807      0.76093726     -0.96731298
 C       3.59452280      1.45477353     -0.40816595
 C       2.52419156      0.77156038      0.18200933
 C       2.50091803     -0.63102044      0.23325301
 N       1.39787272     -1.33625135      0.84059028
 C       1.64803415     -2.49960712      1.65889090
 C       0.81709635     -3.63152031      1.58173393
 C       1.05940683     -4.75717327      2.37356974
 C       2.13621576     -4.77008761      3.25676705
 C       2.97148544     -3.65946506      3.34922083
 C       2.72983353     -2.53409853      2.55678329
 C       0.04514844     -0.87894929      0.63041994
 C      -0.89065752     -0.88054771      1.67700159
 C      -2.20234250     -0.43545753      1.47351768
 C      -2.62416152      0.02481970      0.21598130
 N      -3.97662511      0.48298117      0.00603930
 C      -4.63454137      1.27920639      1.01541245
 C      -5.98844336      1.07055480      1.33328687
 C      -6.62492852      1.84013015      2.31078496
 C      -5.91887157      2.83234814      2.98657922
 C      -4.57732405      3.05616647      2.68678679
 C      -3.94052016      2.28605524      1.70990832
 C      -4.67258057      0.14549421     -1.21354673
 C      -5.48525026      1.08832999     -1.86794688
 C      -6.15776025      0.76231319     -3.04874615
 C      -6.03010824     -0.51244220     -3.59501100
 C      -5.23088898     -1.46171421     -2.96267597
 C      -4.55764974     -1.13551509     -1.78233407
 C      -1.68861426      0.02523360     -0.83089173
 C      -0.37642633     -0.41815902     -0.62702740
 C       3.58509450     -1.32559694     -0.32568682
 C       4.65445696     -0.64068867     -0.91568533
 C       5.58362592      2.44041667     -2.59022779
 C       6.65066189      3.12341996     -3.18043929
 H       8.78682641      3.38918259     -3.23531716
 H       9.21422502      1.70319018     -1.46548394
 H       7.33753375      0.50001797     -0.41553583
 H       3.58103805      2.54295080     -0.41297948
 H       1.71454212      1.34890052      0.62229174
 H      -0.01874069     -3.64969726      0.88632663
 H       0.40770887     -5.62347725      2.29618031
 H       2.32418618     -5.64537229      3.87309517
 H       3.81009833     -3.66436829      4.04049406
 H       3.38368136     -1.67105292      2.65817019
 H      -0.60157824     -1.21631075      2.67024918
 H      -2.89925485     -0.46589886      2.30792828
 H      -6.55359782      0.28931478      0.83031641
 H      -7.67081368      1.65992505      2.54486045
 H      -6.41395619      3.43093497      3.74677035
 H      -4.02427575      3.83214183      3.20944003
 H      -2.89750093      2.48961550      1.47930255
 H      -5.58482428      2.09480835     -1.46820796
 H      -6.77739056      1.50688785     -3.54149541
 H      -6.55327254     -0.76600967     -4.51332322
 H      -5.13204851     -2.45863844     -3.38400954
 H      -3.95321181     -1.89734889     -1.29573733
 H      -1.97023556      0.38669755     -1.81723799
 H       0.31238028     -0.41419380     -1.46862721
 H       3.59673448     -2.41313905     -0.32568645
 H       5.46742619     -1.21763133     -1.35218924
 H       4.57190950      2.65499983     -2.92874908
 H       6.45962040      3.85985242     -3.95655813

