%chk=Spiro-OMeTAD.chk
%mem=19200MB
#p B3LYP/6-31G(d) opt freq

Spiro-OMeTAD - B3LYP/6-31G(d) optimization

0 1
 C       9.06088622      3.76580615     -3.28222304
 O       7.74579451      3.38276334     -3.66407845
 C       7.06613213      2.56577224     -2.80392676
 C       5.78499432      2.20886276     -3.22645236
 C       4.97938803      1.37715994     -2.44219741
 C       5.43961783      0.88114126     -1.21240840
 N       4.61342924      0.02323681     -0.39804947
 C       5.19535799     -1.10483208      0.28820564
 C       4.80298700     -1.43776550      1.59601683
 C       5.36421105     -2.53210462      2.26730682
 C       6.33030354     -3.31733076      1.64138441
 O       6.95531075     -4.40757606      2.17993777
 C       6.57374417     -4.78084809      3.49795814
 C       6.72864504     -2.99778908      0.34268934
 C       6.16980867     -1.90529921     -0.32799898
 C       3.19376474      0.28632312     -0.27808188
 C       2.72344235      1.63449709     -0.12743055
 C       1.36074737      1.94433530     -0.00595049
 C       0.51880895      0.87608648     -0.04060714
 C       0.95417705     -0.43233768     -0.18383103
 C       2.26710062     -0.77848935     -0.30573565
 C      -0.37044101     -0.87865123     -0.13467351
 C      -1.21275493     -1.94637769     -0.17330126
 C      -2.57561281     -1.63610579     -0.05412877
 C      -3.04628429     -0.28791560      0.09663339
 N      -4.46626135     -0.02474088      0.21451477
 C      -4.93920343      0.96938969      1.14721516
 C      -5.97904057      1.84986491      0.80299928
 C      -6.44052306      2.81794315      1.70469719
 C      -5.87030093      2.92325042      2.97178751
 O      -6.22457109      3.81794746      3.94301786
 C      -7.26659532      4.73194655      3.62547028
 C      -4.83753092      2.05436155      3.32651813
 C      -4.37507038      1.08876977      2.42688664
 C      -5.40472110     -0.74754129     -0.60896757
 C      -5.12672894     -1.02004674     -1.95743091
 C      -6.04120152     -1.72098666     -2.74992187
 C      -7.25144478     -2.16733299     -2.21742448
 O      -8.05169085     -2.83906277     -3.09924355
 C      -9.29416061     -3.31971240     -2.60204189
 C      -7.54205605     -1.90530905     -0.88002074
 C      -6.62727759     -1.20180518     -0.08540908
 C      -2.11876432      0.77601051      0.13038919
 C      -0.80555950      0.42939969      0.01216430
 C       6.73162103      1.24838179     -0.79886124
 C       7.53763569      2.08237676     -1.58508040
 H       9.71664808      2.89325800     -3.19414498
 H       9.46470684      4.40705990     -4.07162986
 H       9.04880252      4.34748345     -2.35454839
 H       5.40900191      2.57727619     -4.17781446
 H       3.99362956      1.10466638     -2.81135230
 H       4.06351493     -0.83114492      2.11428759
 H       5.02425641     -2.73654220      3.27682565
 H       6.80894568     -3.98845818      4.21619332
 H       5.51369999     -5.05217867      3.54049418
 H       7.15491446     -5.66527047      3.77630623
 H       7.47836966     -3.60686710     -0.15641362
 H       6.48934208     -1.69676368     -1.34620747
 H       3.44476638      2.44931939     -0.08841276
 H       1.01067771      2.96119515      0.11035286
 H       2.57291049     -1.80871075     -0.43392369
 H      -0.86251023     -2.96376678     -0.28419610
 H      -3.29431524     -2.45412922     -0.06036457
 H      -6.42859607      1.80161904     -0.18647156
 H      -7.24216871      3.47242698      1.37993928
 H      -7.42496473      5.37422486      4.49715534
 H      -8.20567197      4.20569888      3.42476939
 H      -6.98539546      5.37496285      2.78489529
 H      -4.38820628      2.12589805      4.31402831
 H      -3.58027193      0.41726395      2.74246785
 H      -4.20103381     -0.67223787     -2.40956181
 H      -5.80644707     -1.91693222     -3.79335394
 H      -9.93308484     -2.49410856     -2.27151487
 H      -9.14274773     -4.04916285     -1.79949883
 H      -9.80775585     -3.82982499     -3.42267752
 H      -8.46666041     -2.23475753     -0.41849934
 H      -6.87049539     -1.02657404      0.96035215
 H      -2.42581433      1.80931833      0.22655802
 H       7.11783162      0.89941850      0.15637018
 H       8.52400877      2.33411673     -1.21072538

