%chk=TCTA.chk
#p B3LYP/6-31G(d) opt freq

TCTA - B3LYP/6-31G(d) optimization

0 1
 C       6.51158410      0.90757182      3.19257079
 C       6.29083649      2.12719566      2.55422822
 C       5.53777352      2.17747292      1.37941110
 C       4.99989972      1.00116833      0.84209111
 N       4.22371018      1.05028378     -0.35470146
 C       4.54625334      1.78617023     -1.49761000
 C       5.67323733      2.57183121     -1.82038279
 C       5.73115079      3.18875147     -3.07354058
 C       4.70916458      3.01938580     -3.99744171
 C       3.61130570      2.21171736     -3.69220765
 C       3.53147038      1.57439190     -2.43386790
 C       2.58098546      0.68521273     -1.85322668
 C       1.37066350      0.13018745     -2.32319939
 C       0.61049049     -0.70073187     -1.49483037
 C       1.03628124     -0.97673243     -0.19683238
 N       0.23867455     -1.79863400      0.65602042
 C       0.72368265     -2.82353932      1.47177310
 C       2.01697678     -3.36697463      1.62435307
 C       2.20504998     -4.42210186      2.52164118
 C       1.13720005     -4.94421989      3.23875205
 C      -0.14963000     -4.43107221      3.05955806
 C      -0.36584013     -3.36656290      2.15630776
 C      -1.53568075     -2.66775100      1.73787106
 C      -2.90016637     -2.78207724      2.08248618
 C      -3.84133244     -1.91265108      1.52240024
 C      -3.43700065     -0.91729296      0.63403017
 N      -4.40175795     -0.01627901      0.08782140
 C      -5.65200580     -0.38223010     -0.41806551
 C      -6.26063188     -1.64343753     -0.59356773
 C      -7.53942986     -1.70507855     -1.15508932
 C      -8.19721854     -0.54978208     -1.55432268
 C      -7.57967840      0.69528008     -1.41530126
 C      -6.28640658      0.78375084     -0.85337530
 C      -5.40118280      1.87594747     -0.61830710
 C      -5.50133801      3.26546071     -0.85385150
 C      -4.45939017      4.11510241     -0.47522537
 C      -3.32934024      3.60180633      0.14615883
 C      -3.20587993      2.23062551      0.38867707
 C      -4.24137176      1.36710122     -0.02883511
 C      -2.08552276     -0.78738455      0.27665334
 C      -1.14574981     -1.69433483      0.81610277
 C       2.24069662     -0.44172560      0.28799122
 C       3.02124360      0.36932041     -0.56642132
 C       5.22402231     -0.22234738      1.48608360
 C       5.97995944     -0.26561501      2.65918717
 H       7.09809731      0.87149061      4.10722975
 H       6.69777576      3.04231484      2.97729498
 H       5.34564029      3.14611023      0.92417262
 H       6.50069906      2.69256097     -1.12790178
 H       6.59288425      3.80127757     -3.32905317
 H       4.76853533      3.50389092     -4.96868996
 H       2.82546154      2.06779566     -4.42849456
 H       1.02491345      0.34972314     -3.32999503
 H      -0.29841501     -1.14114100     -1.89854935
 H       2.85999361     -2.99797482      1.04888707
 H       3.19890781     -4.84454225      2.65083427
 H       1.29777646     -5.76640452      3.93147564
 H      -0.98328845     -4.85943332      3.60890849
 H      -3.22027764     -3.53439575      2.79845236
 H      -4.87769721     -1.99814489      1.84126463
 H      -5.75335679     -2.56361144     -0.32034380
 H      -8.01914873     -2.67208745     -1.28826892
 H      -9.19045990     -0.61306960     -1.99125125
 H      -8.09201195      1.59312266     -1.74930080
 H      -6.39162654      3.67703389     -1.32085848
 H      -4.54244799      5.18380503     -0.65511450
 H      -2.53224749      4.27336196      0.45728116
 H      -2.32674644      1.85875464      0.90646302
 H      -1.77069884     -0.01973388     -0.42313711
 H       2.53568783     -0.59507339      1.32211871
 H       4.85569431     -1.15605652      1.06928376
 H       6.16059798     -1.21675286      3.15384998

