%chk=TPBi.chk
#p B3LYP/6-31G(d) opt freq

TPBi - B3LYP/6-31G(d) optimization

0 1
 C       3.45525906     -3.97736091      0.84105881
 C       4.10414723     -3.16585375      1.76949885
 C       4.10283025     -1.77915449      1.60525760
 C       3.44155870     -1.18901996      0.51917197
 C       3.46427408      0.27201766      0.37223491
 N       4.58610997      0.96954921      0.41558427
 C       4.24876089      2.25604560      0.11618505
 C       5.08504698      3.37910157      0.01482674
 C       4.51871017      4.62575962     -0.26523302
 C       3.14137707      4.75484321     -0.42496201
 C       2.29348849      3.64483218     -0.32622813
 C       2.87797385      2.38786954     -0.08363960
 N       2.36930562      1.10302143      0.10405503
 C       0.99121699      0.73744528      0.05977180
 C       0.14798619      1.28420968     -0.91416053
 C      -1.20474206      0.92094850     -0.96448230
 C      -1.73954923      0.01071912     -0.04245734
 C      -3.14916593     -0.39994547     -0.05625571
 N      -3.67621269     -1.37004627      0.67179645
 C      -5.01025846     -1.41200198      0.35420681
 C      -6.02298120     -2.25434389      0.83386714
 C      -7.32384717     -2.08666218      0.34188317
 C      -7.60855356     -1.10072518     -0.60664494
 C      -6.60928860     -0.25088715     -1.09599555
 C      -5.32287498     -0.44269731     -0.58804167
 N      -4.12882296      0.18588892     -0.82823957
 C      -0.88141704     -0.53189311      0.92530035
 C       0.47043996     -0.17555067      0.98138338
 C       2.81557746     -2.01777781     -0.42266855
 C       2.81532096     -3.40500225     -0.25684767
 H       3.45733789     -5.05701683      0.96734880
 H       4.61720730     -3.61056360      2.61816830
 H       4.62435437     -1.15356910      2.32747895
 H       6.15407484      3.27072706      0.16356227
 H       5.15916670      5.50106677     -0.34114158
 H       2.71485021      5.73744721     -0.61710208
 H       1.22062860      3.77681978     -0.41344826
 H       0.53003969      1.95556976     -1.67979315
 H      -1.81556763      1.35182950     -1.75214863
 H      -5.79375312     -3.01616478      1.57031821
 H      -8.11947241     -2.73296253      0.70502428
 H      -8.62787101     -0.99121374     -0.97200774
 H      -6.83173750      0.51402299     -1.83157341
 H      -3.99669137      0.95991449     -1.45899384
 H      -1.27034286     -1.24250941      1.65479479
 H       1.07957253     -0.60424965      1.77395485
 H       2.32648388     -1.59387863     -1.29635947
 H       2.32004990     -4.03859843     -0.98823769

